solution status: optimal solution found
objective value:                                   18
x41                                                 1 	(obj:1)
x51                                                 1 	(obj:1)
x54                                                 1 	(obj:1)
x55                                                 1 	(obj:1)
x57                                                 1 	(obj:1)
x58                                                 1 	(obj:1)
x61                                                 1 	(obj:1)
x65                                                 1 	(obj:1)
x71                                                 1 	(obj:1)
x73                                                 1 	(obj:1)
x74                                                 1 	(obj:1)
x75                                                 1 	(obj:1)
x76                                                 1 	(obj:1)
x80                                                 1 	(obj:1)
x82                                                 1 	(obj:1)
x86                                                 1 	(obj:1)
x95                                                 1 	(obj:1)
x96                                                 1 	(obj:1)
one.thingy.devices[0].thingy.v9_y                   24 	(obj:0)
one.thingy.devices[0].thingy.v9_z                   22 	(obj:0)
one.thingy.devices[3].thingy.v7_y                   24 	(obj:0)
one.thingy.devices[3].thingy.v7_z                   20 	(obj:0)
one.thingy.devices[2].thingy.v8_y                   23 	(obj:0)
one.thingy.devices[2].thingy.v8_z                   22 	(obj:0)
one.thingy.devices[3].thingy.v8_y                   25 	(obj:0)
one.thingy.devices[3].thingy.v8_z                   20 	(obj:0)
one.ctrl_s[2].flush_y                              23 	(obj:0)
one.ctrl_s[2].flush_z                              19 	(obj:0)
one.thingy.devices[1].thingy.v7_y                   25 	(obj:0)
one.thingy.devices[1].thingy.v7_z                   22 	(obj:0)
one.ctrl_s[2].hole_y                               22 	(obj:0)
one.ctrl_s[2].hole_z                               22 	(obj:0)
one.thingy.devices[1].thingy.v8_y                   22 	(obj:0)
one.thingy.devices[1].thingy.v8_z                   23 	(obj:0)
one.thingy.devices[2].thingy.v7_y                   24 	(obj:0)
one.thingy.devices[2].thingy.v7_z                   21 	(obj:0)
one.thingy.devices[3].thingy.v9_y                   24 	(obj:0)
one.thingy.devices[3].thingy.v9_z                   19 	(obj:0)
one.thingy.devices[2].thingy.v9_y                   22 	(obj:0)
one.thingy.devices[2].thingy.v9_z                   20 	(obj:0)
one.thingy.devices[0].thingy.v7_y                   25 	(obj:0)
one.thingy.devices[0].thingy.v7_z                   23 	(obj:0)
one.thingy.devices[0].thingy.v8_y                   24 	(obj:0)
one.thingy.devices[0].thingy.v8_z                   23 	(obj:0)
one.thingy.devices[1].thingy.v9_y                   23 	(obj:0)
one.thingy.devices[1].thingy.v9_z                   23 	(obj:0)
